solution status: gap limit reached
objective value:                          28502.68617
y#12                                                1 	(obj:5700)
y#17                                                1 	(obj:5700)
y#22                                                1 	(obj:5700)
y#36                                                1 	(obj:5700)
y#39                                                1 	(obj:5700)
x#1#22                                              1 	(obj:0.00578)
x#2#39                                              1 	(obj:0.02363)
x#3#22                                              1 	(obj:0.03417)
x#4#22                                              1 	(obj:0.04267)
x#5#17                                              1 	(obj:0.0323)
x#6#12                                              1 	(obj:0.03655)
x#7#22                                              1 	(obj:0.04216)
x#8#12                                              1 	(obj:0.05117)
x#9#17                                              1 	(obj:0.04097)
x#10#22                                             1 	(obj:0.04471)
x#11#39                                             1 	(obj:0.04743)
x#12#36                                             1 	(obj:0.07225)
x#13#36                                             1 	(obj:0.05219)
x#14#12                                             1 	(obj:0.04012)
x#15#22                                             1 	(obj:0.02448)
x#16#36                                             1 	(obj:0.04862)
x#17#22                                             1 	(obj:0.03927)
x#18#17                                             1 	(obj:0.04114)
x#19#36                                             1 	(obj:0.08279)
x#20#39                                             1 	(obj:0.02822)
x#21#36                                             1 	(obj:0.02482)
x#22#17                                             1 	(obj:0.15181)
x#23#12                                             1 	(obj:0.02278)
x#24#39                                             1 	(obj:0.0374)
x#25#39                                             1 	(obj:0.03026)
x#26#36                                             1 	(obj:0.07259)
x#27#39                                             1 	(obj:0.0391)
x#28#22                                             1 	(obj:0.02754)
x#29#39                                             1 	(obj:0.04505)
x#30#17                                             1 	(obj:0.04811)
x#31#22                                             1 	(obj:0.00289)
x#32#36                                             1 	(obj:0.01921)
x#33#12                                             1 	(obj:0.06358)
x#34#17                                             1 	(obj:0.02822)
x#35#12                                             1 	(obj:0.08687)
x#36#12                                             1 	(obj:0.07514)
x#37#22                                             1 	(obj:0.03791)
x#38#12                                             1 	(obj:0.12138)
x#39#22                                             1 	(obj:0.07089)
x#40#17                                             1 	(obj:0.02091)
x#41#17                                             1 	(obj:0.04913)
x#42#12                                             1 	(obj:0.0221)
x#43#36                                             1 	(obj:0.06987)
x#44#36                                             1 	(obj:0.13804)
x#45#17                                             1 	(obj:0.02414)
x#46#39                                             1 	(obj:0.02363)
x#47#17                                             1 	(obj:0.01632)
x#48#36                                             1 	(obj:0.01751)
x#49#39                                             1 	(obj:0.03808)
x#50#12                                             1 	(obj:0.0323)
x#51#39                                             1 	(obj:0.0629)
x#52#39                                             1 	(obj:0.0459)
x#53#22                                             1 	(obj:0.04386)
x#54#17                                             1 	(obj:0.06239)
x#55#12                                             1 	(obj:0.10081)
x#56#36                                             1 	(obj:0.08211)
